proyfinal/src/viki/013/experimentInOfficeAgust.take6.output/5fd20c83-ef10-4c0b-a47f-05708fc71136.als.dat
{'cnf.clauses': '118081',
 'cnf.totvars': '69608',
 'conflict literals': '1',
 'conflicts': '2',
 'decisions': '424',
 'memused.mb': '17.57',
 'outcome': 'UNSAT',
 'propagations': '19048',
 'restarts': '1',
 'solver.msecs': 31,
 'task.msecs': 85}
