proyfinal/src/viki/013/experimentInOfficeAgust.take6.output/5fd20c83-ef10-4c0b-a47f-05708fc71136.als.out
Reading from standard input... Use '--help' for help.
============================[ Problem Statistics ]=============================
|                                                                             |
|  Number of variables:         69608                                         |
|  Number of clauses:          118081                                         |
|  Parse time:                   0.02 s                                       |
|                                                                             |
============================[ Search Statistics ]==============================
| Conflicts |          ORIGINAL         |          LEARNT          | Progress |
|           |    Vars  Clauses Literals |    Limit  Clauses Lit/Cl |          |
===============================================================================
===============================================================================
restarts              : 1
conflicts             : 2              (64 /sec)
decisions             : 424            (0.00 % random) (13522 /sec)
propagations          : 19048          (607475 /sec)
conflict literals     : 1              (0.00 % deleted)
Memory used           : 17.57 MB
CPU time              : 0.031356 s

UNSATISFIABLE
